n = 5;
n2 = 7;
n3 = 8;
match12 = [|
80, 82, 82, 82, 90, 12, 80|
89, 0, 64, 0, 83, 83, 71|
0, 89, 79, 89, 19, 78, 79|
79, 64, 0, 64, 93, 81, 86|
79, 71, 86, 71, 71, 81, 0|];
match23 = [|
0, 0, 88, 0, 76, 0, 89, 79|
89, 89, 84, 89, 82, 89, 0, 71|
79, 79, 19, 79, 79, 79, 64, 86|
89, 89, 84, 89, 82, 89, 0, 71|
19, 19, 97, 19, 88, 19, 83, 71|
78, 78, 86, 78, 6, 78, 83, 81|
79, 79, 84, 79, 79, 79, 71, 0|];
match31 = [|
80, 89, 0, 79, 79, 100, 100, 100|
80, 89, 0, 79, 79, 100, 100, 100|
82, 84, 88, 19, 84, 100, 100, 100|
80, 89, 0, 79, 79, 100, 100, 100|
15, 82, 76, 79, 79, 100, 100, 100|
80, 89, 0, 79, 79, 100, 100, 100|
82, 0, 89, 64, 71, 100, 100, 100|
80, 71, 79, 86, 0, 100, 100, 100|];
